qbf_easy_train/easy_977_UNSAT.qdimacs
p cnf 38 113
a 4 12 22 0
e 1 2 3 5 6 7 8 9 10 11 13 14 15 16 17 18 19 20 21 23 24 25 26 27 28 29 30 31 32 33 34 35 36 37 38 0
4 2 0
4 -3 0
-2 3 -4 0
5 1 0
5 4 0
-1 -4 -5 0
-6 3 0
-6 3 0
-3 6 0
7 -8 -9 0
-7 8 -9 0
7 8 9 0
-7 -8 9 0
6 -9 -10 0
-6 9 -10 0
6 9 10 0
-6 -9 10 0
-12 3 0
-12 -11 0
-3 11 12 0
13 -10 0
13 -12 0
10 12 -13 0
-5 13 -14 0
5 -13 -14 0
-5 -13 14 0
5 13 14 0
-3 1 -15 0
3 -1 -15 0
-3 -1 15 0
3 1 15 0
1 -15 -16 0
-1 15 -16 0
1 15 16 0
-1 -15 16 0
18 17 0
18 -7 0
-17 7 -18 0
12 18 -19 0
-12 -18 -19 0
12 -18 19 0
-12 18 19 0
-16 -19 -20 0
16 19 -20 0
-16 19 20 0
16 -19 20 0
-21 -17 0
-21 -11 0
17 11 21 0
-22 1 0
-22 21 0
-1 -21 22 0
1 -8 -24 0
-1 8 -24 0
1 8 24 0
-1 -8 24 0
25 10 0
25 -24 0
-10 24 -25 0
26 2 0
26 25 0
-2 -25 -26 0
27 23 0
27 26 0
-23 -26 -27 0
22 27 -28 0
-22 -27 -28 0
22 -27 28 0
-22 27 28 0
-20 28 -29 0
20 -28 -29 0
-20 -28 29 0
20 28 29 0
30 -14 0
30 29 0
14 -29 -30 0
31 -7 0
31 -15 0
7 15 -31 0
32 11 0
32 6 0
-11 -6 -32 0
24 6 -33 0
-24 -6 -33 0
24 -6 33 0
-24 6 33 0
-34 32 0
-34 33 0
-32 -33 34 0
35 31 0
35 -34 0
-31 34 -35 0
36 30 0
36 35 0
-30 -35 -36 0
10 -15 -37 0
-10 15 -37 0
10 15 37 0
-10 -15 37 0
38 36 0
38 -37 0
-36 37 -38 0
-36 1 3 0
-5 -3 1 21 14 -16 30 0
31 10 14 2 36 -1 0
21 31 -27 29 -8 -20 0
-23 -7 -26 2 0
38 29 -25 32 19 0
32 -11 19 0
-2 13 -8 14 5 15 0
8 2 -24 -18 -13 9 12 25 0
28 -26 15 32 -10 0
38 0
