sat_easy_train/easy_977_UNSAT.dimacs
p cnf 110 361
1 2 -3 0
-1 -2 -3 0
1 -2 3 0
-1 2 3 0
6 4 0
6 -5 0
-4 5 -6 0
6 -7 -8 0
-6 7 -8 0
6 7 8 0
-6 -7 8 0
9 -3 0
9 -8 0
3 8 -9 0
-11 -1 -12 0
11 1 -12 0
-11 1 12 0
11 -1 12 0
10 -12 -13 0
-10 12 -13 0
10 12 13 0
-10 -12 13 0
-15 -14 0
-15 -6 0
14 6 15 0
16 13 0
16 -15 0
-13 15 -16 0
9 -16 -17 0
-9 16 -17 0
9 16 17 0
-9 -16 17 0
18 -13 -19 0
-18 13 -19 0
18 13 19 0
-18 -13 19 0
-20 14 0
-20 -2 0
-14 2 20 0
22 20 0
22 21 0
-20 -21 -22 0
-23 19 0
-23 22 0
-19 -22 23 0
-24 17 0
-24 23 0
-17 -23 24 0
-25 12 0
-25 -12 0
27 -25 0
27 26 0
25 -26 -27 0
27 -20 -28 0
-27 20 -28 0
27 20 28 0
-27 -20 28 0
-29 28 0
-29 22 0
-28 -22 29 0
-31 -30 0
-31 12 0
30 -12 31 0
15 -31 -32 0
-15 31 -32 0
15 31 32 0
-15 -31 32 0
-33 30 0
-33 21 0
-30 -21 33 0
34 -32 0
34 33 0
32 -33 -34 0
35 29 0
35 -34 0
-29 34 -35 0
-36 24 0
-36 -35 0
-24 35 36 0
37 -20 0
37 -10 0
20 10 -37 0
39 -37 0
39 -38 0
37 38 -39 0
40 -5 0
40 39 0
5 -39 -40 0
-41 -8 -42 0
41 8 -42 0
-41 8 42 0
41 -8 42 0
-42 10 -43 0
42 -10 -43 0
-42 -10 43 0
42 10 43 0
-12 19 -44 0
12 -19 -44 0
-12 -19 44 0
12 19 44 0
-45 -44 0
-45 -41 0
44 41 45 0
43 -45 -46 0
-43 45 -46 0
43 45 46 0
-43 -45 46 0
-48 -12 0
-48 -47 0
12 47 48 0
49 48 0
49 -15 0
-48 15 -49 0
50 -10 0
50 38 0
10 -38 -50 0
-51 50 0
-51 -12 0
-50 12 51 0
52 -49 0
52 -51 0
49 51 -52 0
53 -10 0
53 -11 0
10 11 -53 0
54 -53 0
54 14 0
53 -14 -54 0
52 -54 -55 0
-52 54 -55 0
52 54 55 0
-52 -54 55 0
56 -46 0
56 55 0
46 -55 -56 0
57 -40 0
57 56 0
40 -56 -57 0
36 57 -58 0
-36 -57 -58 0
36 -57 58 0
-36 57 58 0
59 -26 0
59 41 0
26 -41 -59 0
-10 -59 -60 0
10 59 -60 0
-10 59 60 0
10 -59 60 0
61 60 0
61 12 0
-60 -12 -61 0
26 -60 -62 0
-26 60 -62 0
26 60 62 0
-26 -60 62 0
-63 -62 0
-63 14 0
62 -14 63 0
-10 -33 -64 0
10 33 -64 0
-10 33 64 0
10 -33 64 0
65 63 0
65 64 0
-63 -64 -65 0
66 -61 0
66 65 0
61 -65 -66 0
-58 66 -67 0
58 -66 -67 0
-58 -66 67 0
58 66 67 0
-25 -18 -68 0
25 18 -68 0
-25 18 68 0
25 -18 68 0
-69 60 0
-69 19 0
-60 -19 69 0
70 69 0
70 -19 0
-69 19 -70 0
-71 18 0
-71 -20 0
-18 20 71 0
72 -71 0
72 -12 0
71 12 -72 0
70 -72 -73 0
-70 72 -73 0
70 72 73 0
-70 -72 73 0
74 -70 0
74 -16 0
70 16 -74 0
75 1 0
75 30 0
-1 -30 -75 0
-74 75 -76 0
74 -75 -76 0
-74 -75 76 0
74 75 76 0
-73 76 -77 0
73 -76 -77 0
-73 -76 77 0
73 76 77 0
-78 68 0
-78 -77 0
-68 77 78 0
16 6 -79 0
-16 -6 -79 0
16 -6 79 0
-16 6 79 0
80 -79 0
80 -10 0
79 10 -80 0
-81 38 0
-81 31 0
-38 -31 81 0
82 -10 0
82 -81 0
10 81 -82 0
-83 -80 0
-83 -82 0
80 82 83 0
-84 -3 0
-84 -25 0
3 25 84 0
83 -84 -85 0
-83 84 -85 0
83 84 85 0
-83 -84 85 0
82 -4 -86 0
-82 4 -86 0
82 4 86 0
-82 -4 86 0
87 86 0
87 37 0
-86 -37 -87 0
-15 87 -88 0
15 -87 -88 0
-15 -87 88 0
15 87 88 0
85 -88 -89 0
-85 88 -89 0
85 88 89 0
-85 -88 89 0
78 89 -90 0
-78 -89 -90 0
78 -89 90 0
-78 89 90 0
91 -31 0
91 -87 0
31 87 -91 0
-92 -32 0
-92 -91 0
32 91 92 0
-93 30 0
-93 -4 0
-30 4 93 0
-94 92 0
-94 -93 0
-92 93 94 0
-95 -10 0
-95 -50 0
10 50 95 0
-28 -16 -96 0
28 16 -96 0
-28 16 96 0
28 -16 96 0
-97 -15 0
-97 -87 0
15 87 97 0
98 96 0
98 97 0
-96 -97 -98 0
-99 -21 0
-99 87 0
21 -87 99 0
-100 98 0
-100 99 0
-98 -99 100 0
-101 -95 0
-101 -100 0
95 100 101 0
-102 94 0
-102 -101 0
-94 101 102 0
-90 -102 -103 0
90 102 -103 0
-90 102 103 0
90 -102 103 0
104 -10 0
104 26 0
10 -26 -104 0
-2 -104 -105 0
2 104 -105 0
-2 104 105 0
2 -104 105 0
-107 -81 0
-107 -106 0
81 106 107 0
-105 -107 -108 0
105 107 -108 0
-105 107 108 0
105 -107 108 0
109 103 0
109 108 0
-103 -108 -109 0
-110 -67 0
-110 -109 0
67 109 110 0
-60 99 47 0
101 -55 -59 89 -109 0
-110 57 46 -35 42 -87 0
107 -15 -104 -21 -37 -55 0
-29 -15 -102 56 0
29 9 34 8 0
-110 80 19 44 86 24 0
19 37 0
109 26 -56 -87 13 0
12 93 -107 55 0
3 -77 67 0
70 -40 0
-104 31 -78 38 -50 -94 0
-79 -46 -21 31 -39 -93 0
37 20 -59 107 0
103 -38 -6 -67 -109 0
49 -83 -99 -78 -82 0
83 45 25 0
-68 -99 52 -43 0
26 92 -85 0
-89 -70 97 0
-94 -32 48 77 0
-58 15 95 101 -43 0
-46 75 87 -55 4 -34 0
-49 -30 -93 0
85 20 0
89 -79 69 0
-75 93 98 -30 -110 -20 0
-44 60 45 -38 -65 0
86 -34 55 49 -76 -78 0
35 -72 1 62 0
8 -36 32 -81 -72 4 0
57 -60 23 91 78 44 0
-5 35 100 0
-44 37 0
67 -99 0
-77 -80 0
-49 56 52 0
39 -71 38 0
-27 -106 13 74 -73 -78 0
96 3 0
37 48 0
41 55 -88 -109 -102 -22 0
-8 101 -56 -83 50 0
18 -35 0
89 67 0
-90 -23 -29 0
110 0
